<instance format="XCSP3" type="CSP">
  <variables>
    <var id="x0"> 6 8 10 14 16 </var>
    <var id="x1"> 3 6 8 12 14 </var>
    <var id="x2"> 1 6 14 </var>
    <var id="x3"> 3 6 10 14 </var>
    <var id="x4"> 3 6 16 </var>
    <var id="x5"> 1 3 8 12 14 16 </var>
    <var id="x6"> 1 3 16 </var>
    <var id="x7"> 3 6 8 12 16 </var>
    <var id="x8"> 10 12 15 17 </var>
    <var id="x9"> 6 10 15 16 </var>
    <var id="x10"> 6 12 15 </var>
    <var id="x11"> 13 15 16 </var>
    <var id="x12"> 6 12 16 </var>
    <var id="x13"> 6 10 16 17 </var>
    <var id="x14"> 15 16 </var>
    <var id="x15"> 10 11 17 </var>
    <var id="x16"> 0 2 </var>
    <var id="x17"> 0 2 11 </var>
    <var id="x18"> 0 3 4 11 </var>
    <var id="x19"> 3 11 16 </var>
    <var id="x20"> 0 3 16 </var>
    <var id="x21"> 0 3 4 10 </var>
    <var id="x22"> 2 3 10 17 </var>
    <var id="x23"> 11 12 14 15 17 </var>
    <var id="x24"> 14..16 </var>
    <var id="x25"> 3 12 14 15 </var>
    <var id="x26"> 1 14 15 </var>
    <var id="x27"> 3 11 14 17 </var>
    <var id="x28"> 1 3 12 14 16 </var>
    <var id="x29"> 3 12 15 </var>
    <var id="x30"> 3 11 14 </var>
    <var id="x31"> 0 6 8 12 14 15 </var>
    <var id="x32"> 1 15 </var>
    <var id="x33"> 0 1 6 12 </var>
    <var id="x34"> 0 6 12 15 </var>
    <var id="x35"> 0 6..8 12 </var>
    <var id="x36"> 0 6 7 14 </var>
    <var id="x37"> 8 14 15 </var>
    <var id="x38"> 8 15 </var>
    <var id="x39"> 8 10 11 </var>
    <var id="x40"> 2 6 8 10 </var>
    <var id="x41"> 0 3 10 </var>
    <var id="x42"> 0 3 4 6 11 </var>
    <var id="x43"> 0 3 4 6 </var>
    <var id="x44"> 0 4 6 10 </var>
    <var id="x45"> 3 8 11 </var>
    <var id="x46"> 2 3 8 10 </var>
    <var id="x47"> 5 10 15 </var>
    <var id="x48"> 5 6 10 15 </var>
    <var id="x49"> 0 3 6 7 10 </var>
    <var id="x50"> 0 3 4 6 </var>
    <var id="x51"> 0 3 7 10 15 </var>
    <var id="x52"> 0 3 6 </var>
    <var id="x53"> 3 5 15 </var>
    <var id="x54"> 3 5 10 15 </var>
    <var id="x55"> 0 15 </var>
    <var id="x56"> 0 5 9 15 </var>
    <var id="x57"> 0 7 15 </var>
    <var id="x58"> 0 16 17 </var>
    <var id="x59"> 0 16 </var>
    <var id="x60"> 0 5 15 17 </var>
    <var id="x61"> 0 7 9 16 </var>
    <var id="x62"> 0 7 10 16 17 </var>
    <var id="x63"> 2 12 </var>
    <var id="x64"> 3 12 16 </var>
    <var id="x65"> 3 9 10 12 </var>
    <var id="x66"> 2 3 12 16 </var>
    <var id="x67"> 3 5 12 17 </var>
    <var id="x68"> 3 9 10 </var>
    <var id="x69"> 10 16 17 </var>
    <var id="x70"> 3 5 9 16 </var>
    <var id="x71"> 8 14 </var>
    <var id="x72"> 0 3 4 8 14 </var>
    <var id="x73"> 0 2 14 </var>
    <var id="x74"> 0 3 4 13 </var>
    <var id="x75"> 0 3 8 14 </var>
    <var id="x76"> 0 3 4 14 </var>
    <var id="x77"> 0 3 4 </var>
    <var id="x78"> 0 3 4 9 14 </var>
    <var id="x79"> 5 12 14 </var>
    <var id="x80"> 0 3 6 14 </var>
    <var id="x81"> 0 3 6 16 </var>
    <var id="x82"> 0 3 5 6 14 </var>
    <var id="x83"> 0 3 6 12 16 </var>
    <var as="x83" id="x84"/>
    <var id="x85"> 3 5 </var>
    <var id="x86"> 0 4 6 14 15 </var>
    <var id="x87"> 0 6 7 14 </var>
    <var id="x88"> 0 4 6 13 </var>
    <var id="x89"> 0 7 13 15 </var>
    <var id="x90"> 5 13 15 </var>
    <var id="x91"> 0 4..6 15 </var>
    <var id="x92"> 0 4 6 7 14 </var>
    <var id="x93"> 5 15 </var>
    <var id="x94"> 5 8 11 12 15 </var>
    <var id="x95"> 0 5 6 15 </var>
    <var id="x96"> 0 3 6 11 </var>
    <var id="x97"> 0 3 12 15 </var>
    <var id="x98"> 0 3 6 12 </var>
    <var id="x99"> 0 3 6 8 12 </var>
    <var id="x100"> 0 3 6 </var>
    <var id="x101"> 0 6 </var>
    <var id="x102"> 0 6 7 14 15 </var>
    <var id="x103"> 0 6 7 14 17 </var>
    <var id="x104"> 0 7 15 </var>
    <var id="x105"> 1 15 </var>
    <var id="x106"> 0 1 6 </var>
    <var id="x107"> 0 6 7 14 </var>
    <var id="x108"> 0 1 6 7 17 </var>
    <var id="x109"> 8 14 15 </var>
    <var id="x110"> 6 14 15 </var>
    <var id="x111"> 0 3 4 6 14 15 </var>
    <var id="x112"> 0 3 4 6 </var>
    <var id="x113"> 0 3 4 6 14 </var>
    <var id="x114"> 0 3 6 7 9 </var>
    <var id="x115"> 0 3 4 6 7 9 14 </var>
    <var id="x116"> 0 4 6 7 </var>
    <var id="x117"> 3 9 14 15 </var>
    <var id="x118"> 0 5 6 9 </var>
    <var id="x119"> 0 6 11 </var>
    <var id="x120"> 0 3 8 </var>
    <var id="x121"> 3 5 9 11 </var>
    <var id="x122"> 0 3 5 6 </var>
    <var id="x123"> 0 3 6 8 9 </var>
    <var id="x124"> 3 5 8 9 </var>
    <var id="x125"> 5 6 14 16 </var>
    <var id="x126"> 5 6 9 14 </var>
    <var id="x127"> 3 6 11 14 </var>
    <var id="x128"> 3 12 14 16 </var>
    <var id="x129"> 3 5 9 11 16 </var>
    <var id="x130"> 3 5 6 12 </var>
    <var id="x131"> 3 5 9 11 14 16 </var>
    <var id="x132"> 3 5 9 </var>
    <var id="x133"> 2 14 15 </var>
    <var id="x134"> 0 3 14 15 </var>
    <var id="x135"> 0..2 9 14 15 </var>
    <var id="x136"> 0 2 11 14 15 </var>
    <var id="x137"> 0 3 11 </var>
    <var id="x138"> 0 3 9 15 </var>
    <var id="x139"> 0 3 11 14 </var>
    <var id="x140"> 0 1 </var>
  </variables>
  <constraints>
    <group>
      <allDifferent> %... </allDifferent>
      <args> x0 x1 x2 x3 x4 x5 x6 x7 </args>
      <args> x8 x9 x10 x11 x12 x13 x14 </args>
      <args> x15 x16 x17 x18 x19 x20 x21 x22 </args>
      <args> x23 x24 x25 x26 x27 x28 x29 x30 </args>
      <args> x31 x32 x33 x34 x35 x36 x37 x38 </args>
      <args> x39 x40 x41 x42 x43 x44 x45 x46 </args>
      <args> x47 x48 x49 x50 x51 x52 x53 x54 </args>
      <args> x55 x56 x57 x58 x59 x60 x61 x62 </args>
      <args> x63 x64 x65 x66 x67 x68 x69 x70 </args>
      <args> x71 x72 x73 x74 x75 x76 x77 x78 </args>
      <args> x79 x80 x81 x82 x83 x84 x85 </args>
      <args> x86 x87 x88 x89 x90 x91 x92 x93 </args>
      <args> x94 x95 x96 x97 x98 x99 x100 x101 </args>
      <args> x102 x103 x104 x105 x106 x107 x108 x109 </args>
      <args> x110 x111 x112 x113 x114 x115 x116 x117 </args>
      <args> x118 x119 x120 x121 x122 x123 x124 </args>
      <args> x125 x126 x127 x128 x129 x130 x131 x132 </args>
      <args> x133 x134 x135 x136 x137 x138 x139 x140 </args>
      <args> x8 x15 x23 x39 x47 x71 x79 x94 </args>
      <args> x0 x9 x24 x40 x48 x110 x125 x133 </args>
      <args> x1 x25 x31 x55 x72 x86 x111 x134 </args>
      <args> x2 x16 x26 x56 x95 x118 x126 x135 </args>
      <args> x10 x17 x57 x63 x73 x102 x119 x136 </args>
      <args> x3 x27 x49 x80 x87 x96 x103 x127 </args>
      <args> x4 x50 x58 x74 x81 x88 x112 x137 </args>
      <args> x5 x28 x59 x64 x75 x120 x128 </args>
      <args> x29 x41 x51 x65 x89 x97 x104 x138 </args>
      <args> x18 x30 x42 x76 x82 x113 x139 </args>
      <args> x6 x11 x19 x32 x90 x105 x121 x129 </args>
      <args> x12 x33 x52 x66 x83 x98 x106 </args>
      <args> x34 x43 x60 x67 x77 x91 x122 x130 </args>
      <args> x7 x20 x35 x61 x84 x99 x114 x123 </args>
      <args> x21 x36 x68 x78 x92 x100 x107 x115 </args>
      <args> x13 x44 x62 x69 x101 x108 x116 x140 </args>
      <args> x14 x37 x45 x53 x70 x109 x117 x131 </args>
      <args> x22 x38 x46 x54 x85 x93 x124 x132 </args>
    </group>
  </constraints>
</instance>

